python/teste/teste8
3 3
0 1 1 10 2 5
1 6 2 4 0 6
0 7 2 6 1 10
